87983068863303898845013,1,1,2,013,5,1,2,08,9,1,2,013,5,1,2,09,5,1,2,015,1,1,2,04,4,1,2,09,9,1,2,07,6,1,2,09,14,1,2,011,6,1,2,09,9,1,2,08,11,1,2,02,1,1,2,07,2,1,2,03,12,1,2,07,4,1,2,01,13,1,2,09,3,1,2,013,2,1,2,010,6,1,2,02,1,1,2,09,6,1,2,014,15,1,2,08,15,1,2,03,8,1,2,011,9,1,2,08,12,1,2,09,7,1,2,05,10,1,2,03,6,1,2,09,12,1,2,015,3,1,2,015,12,1,2,014,11,1,2,012,12,1,2,014,6,1,2,03,2,1,2,06,8,1,2,010,1,1,2,02,14,1,2,02,3,1,2,05,5,1,2,06,10,1,2,014,6,1,2,014,14,1,2,09,15,1,2,01,3,1,2,015,6,1,2,05,3,1,2,0